============================[ Problem Statistics ]=============================
|                                                                             |
|  Number of variables:           729                                         |
|  Number of clauses:            9406                                         |
|  Parse time:                   0.00 s                                       |
|  Simplification time:          0.00 s                                       |
|                                                                             |
============================[ Search Statistics ]==============================
| Conflicts |          ORIGINAL         |          LEARNT          | Progress |
|           |    Vars  Clauses Literals |    Limit  Clauses Lit/Cl |          |
===============================================================================
===============================================================================
restarts              : 1
conflicts             : 1              (188 /sec)
decisions             : 8              (0.00 % random) (1500 /sec)
propagations          : 897            (168198 /sec)
conflict literals     : 2              (0.00 % deleted)
Memory used           : 5.18 MB
CPU time              : 0.005333 s

SATISFIABLE
